c 
c G(k,n,p) graph
c graph gen seed     : 91317
c number of vertices : 80
c max number of edges: 1600
c number of classes  : 2
c edge density       : 0.300000
c edge probability   : 0.600000
c data structure     : dense
c
c           Graph Stats
c number of vertices  : 80
c nonisolated vertices: 80
c number of edges     : 930
c edge density        : 0.294304
c max degree          : 30
c avg degree          : 23.25
c min degree          : 16
p col 80 930
e 1 2
e 1 4
e 1 12
e 1 15
e 1 20
e 1 23
e 1 27
e 1 30
e 1 36
e 1 43
e 1 45
e 1 46
e 1 48
e 1 51
e 1 52
e 1 56
e 1 57
e 1 59
e 1 61
e 1 63
e 1 67
e 1 68
e 1 73
e 2 7
e 2 11
e 2 17
e 2 18
e 2 19
e 2 22
e 2 24
e 2 31
e 2 32
e 2 33
e 2 39
e 2 40
e 2 44
e 2 49
e 2 55
e 2 60
e 2 62
e 2 64
e 2 69
e 2 70
e 2 74
e 2 75
e 2 77
e 3 7
e 3 11
e 3 14
e 3 16
e 3 17
e 3 18
e 3 19
e 3 22
e 3 24
e 3 31
e 3 33
e 3 34
e 3 35
e 3 38
e 3 39
e 3 40
e 3 44
e 3 47
e 3 49
e 3 55
e 3 64
e 3 65
e 3 72
e 3 74
e 3 75
e 3 76
e 3 77
e 4 9
e 4 16
e 4 17
e 4 18
e 4 19
e 4 21
e 4 22
e 4 24
e 4 29
e 4 32
e 4 33
e 4 34
e 4 35
e 4 40
e 4 42
e 4 44
e 4 47
e 4 50
e 4 55
e 4 60
e 4 62
e 4 64
e 4 65
e 4 70
e 4 74
e 4 76
e 4 77
e 5 7
e 5 11
e 5 14
e 5 16
e 5 17
e 5 18
e 5 21
e 5 22
e 5 24
e 5 29
e 5 31
e 5 35
e 5 38
e 5 40
e 5 44
e 5 50
e 5 58
e 5 60
e 5 64
e 5 70
e 5 74
e 5 75
e 6 7
e 6 9
e 6 11
e 6 14
e 6 17
e 6 21
e 6 22
e 6 24
e 6 31
e 6 33
e 6 34
e 6 50
e 6 55
e 6 58
e 6 60
e 6 72
e 6 74
e 6 76
e 6 77
e 7 10
e 7 12
e 7 20
e 7 23
e 7 25
e 7 27
e 7 28
e 7 30
e 7 36
e 7 43
e 7 45
e 7 48
e 7 51
e 7 52
e 7 57
e 7 59
e 7 63
e 7 66
e 7 68
e 7 73
e 7 78
e 7 79
e 8 11
e 8 17
e 8 31
e 8 32
e 8 33
e 8 34
e 8 35
e 8 38
e 8 40
e 8 42
e 8 44
e 8 49
e 8 50
e 8 55
e 8 58
e 8 62
e 8 74
e 8 76
e 8 77
e 9 10
e 9 13
e 9 20
e 9 23
e 9 28
e 9 30
e 9 36
e 9 37
e 9 45
e 9 46
e 9 48
e 9 52
e 9 53
e 9 61
e 9 66
e 9 73
e 9 78
e 9 79
e 9 80
e 10 11
e 10 14
e 10 16
e 10 19
e 10 21
e 10 22
e 10 24
e 10 29
e 10 31
e 10 33
e 10 34
e 10 35
e 10 38
e 10 39
e 10 47
e 10 58
e 10 62
e 10 64
e 10 65
e 10 69
e 10 72
e 10 74
e 10 75
e 10 77
e 11 12
e 11 15
e 11 23
e 11 28
e 11 36
e 11 37
e 11 41
e 11 43
e 11 46
e 11 52
e 11 56
e 11 63
e 11 66
e 11 68
e 11 71
e 11 73
e 11 78
e 11 80
e 12 14
e 12 16
e 12 17
e 12 19
e 12 22
e 12 29
e 12 32
e 12 34
e 12 35
e 12 38
e 12 39
e 12 40
e 12 44
e 12 49
e 12 55
e 12 58
e 12 60
e 12 64
e 12 75
e 12 77
e 13 14
e 13 16
e 13 18
e 13 19
e 13 22
e 13 24
e 13 32
e 13 33
e 13 34
e 13 35
e 13 38
e 13 39
e 13 40
e 13 42
e 13 44
e 13 47
e 13 50
e 13 55
e 13 58
e 13 69
e 13 76
e 14 15
e 14 20
e 14 25
e 14 26
e 14 27
e 14 28
e 14 30
e 14 36
e 14 41
e 14 43
e 14 45
e 14 48
e 14 51
e 14 52
e 14 54
e 14 57
e 14 59
e 14 66
e 14 67
e 14 68
e 14 78
e 14 80
e 15 17
e 15 18
e 15 24
e 15 29
e 15 35
e 15 40
e 15 44
e 15 49
e 15 50
e 15 55
e 15 60
e 15 62
e 15 64
e 15 69
e 15 70
e 15 72
e 15 74
e 15 75
e 15 76
e 16 23
e 16 25
e 16 26
e 16 28
e 16 41
e 16 43
e 16 45
e 16 46
e 16 48
e 16 54
e 16 56
e 16 57
e 16 61
e 16 66
e 16 67
e 16 68
e 16 71
e 16 73
e 16 78
e 16 80
e 17 20
e 17 23
e 17 25
e 17 27
e 17 28
e 17 30
e 17 36
e 17 37
e 17 41
e 17 46
e 17 59
e 17 61
e 17 66
e 17 68
e 17 73
e 17 78
e 17 79
e 17 80
e 18 20
e 18 37
e 18 41
e 18 45
e 18 51
e 18 56
e 18 57
e 18 61
e 18 67
e 18 73
e 18 78
e 18 79
e 18 80
e 19 20
e 19 23
e 19 25
e 19 26
e 19 27
e 19 28
e 19 37
e 19 45
e 19 48
e 19 51
e 19 52
e 19 53
e 19 54
e 19 56
e 19 59
e 19 66
e 19 68
e 19 73
e 19 80
e 20 21
e 20 22
e 20 24
e 20 35
e 20 38
e 20 42
e 20 44
e 20 49
e 20 50
e 20 58
e 20 62
e 20 69
e 20 75
e 20 77
e 21 23
e 21 25
e 21 27
e 21 30
e 21 36
e 21 37
e 21 43
e 21 45
e 21 46
e 21 48
e 21 52
e 21 53
e 21 54
e 21 61
e 21 66
e 21 67
e 21 68
e 21 71
e 21 73
e 21 78
e 21 79
e 21 80
e 22 23
e 22 26
e 22 27
e 22 30
e 22 37
e 22 41
e 22 43
e 22 45
e 22 52
e 22 54
e 22 56
e 22 57
e 22 59
e 22 63
e 22 73
e 22 78
e 22 80
e 23 24
e 23 29
e 23 33
e 23 35
e 23 38
e 23 39
e 23 40
e 23 44
e 23 49
e 23 50
e 23 55
e 23 60
e 23 62
e 23 65
e 23 69
e 23 70
e 23 72
e 23 74
e 23 75
e 23 76
e 23 77
e 24 25
e 24 27
e 24 30
e 24 37
e 24 41
e 24 46
e 24 52
e 24 54
e 24 57
e 24 61
e 24 66
e 24 68
e 24 73
e 24 79
e 25 29
e 25 32
e 25 33
e 25 34
e 25 35
e 25 38
e 25 40
e 25 42
e 25 47
e 25 49
e 25 55
e 25 62
e 25 65
e 25 70
e 25 72
e 25 75
e 25 76
e 26 31
e 26 38
e 26 39
e 26 42
e 26 47
e 26 49
e 26 58
e 26 60
e 26 64
e 26 74
e 26 76
e 26 77
e 27 29
e 27 31
e 27 32
e 27 33
e 27 34
e 27 42
e 27 44
e 27 47
e 27 49
e 27 60
e 27 64
e 27 70
e 27 72
e 27 75
e 27 76
e 28 29
e 28 31
e 28 32
e 28 33
e 28 34
e 28 38
e 28 39
e 28 44
e 28 49
e 28 50
e 28 55
e 28 58
e 28 70
e 28 74
e 28 75
e 29 36
e 29 37
e 29 41
e 29 48
e 29 52
e 29 53
e 29 54
e 29 61
e 29 63
e 29 68
e 29 71
e 29 73
e 30 31
e 30 32
e 30 33
e 30 34
e 30 35
e 30 38
e 30 39
e 30 40
e 30 44
e 30 49
e 30 50
e 30 55
e 30 60
e 30 64
e 30 65
e 30 69
e 30 70
e 30 72
e 30 74
e 30 75
e 30 77
e 31 36
e 31 37
e 31 52
e 31 54
e 31 66
e 31 67
e 31 79
e 31 80
e 32 36
e 32 37
e 32 41
e 32 43
e 32 46
e 32 48
e 32 53
e 32 68
e 32 78
e 32 80
e 33 37
e 33 41
e 33 43
e 33 45
e 33 46
e 33 48
e 33 51
e 33 54
e 33 59
e 33 61
e 33 63
e 33 66
e 33 68
e 33 71
e 33 78
e 33 79
e 33 80
e 34 37
e 34 41
e 34 48
e 34 51
e 34 53
e 34 54
e 34 56
e 34 61
e 34 66
e 34 68
e 34 78
e 34 79
e 34 80
e 35 36
e 35 37
e 35 41
e 35 43
e 35 45
e 35 48
e 35 51
e 35 52
e 35 53
e 35 59
e 35 63
e 35 67
e 35 68
e 35 71
e 35 73
e 35 79
e 35 80
e 36 38
e 36 39
e 36 40
e 36 49
e 36 58
e 36 60
e 36 64
e 36 65
e 36 70
e 36 72
e 36 75
e 37 38
e 37 39
e 37 40
e 37 47
e 37 49
e 37 58
e 37 62
e 37 69
e 37 72
e 37 74
e 37 75
e 37 77
e 38 43
e 38 45
e 38 48
e 38 54
e 38 56
e 38 57
e 38 61
e 38 63
e 38 66
e 38 68
e 38 71
e 38 73
e 38 78
e 38 80
e 39 41
e 39 43
e 39 46
e 39 48
e 39 51
e 39 53
e 39 57
e 39 59
e 39 63
e 39 66
e 39 67
e 39 68
e 39 71
e 39 73
e 39 78
e 39 79
e 39 80
e 40 43
e 40 45
e 40 51
e 40 52
e 40 54
e 40 57
e 40 61
e 40 63
e 40 66
e 40 67
e 40 68
e 40 71
e 40 78
e 40 79
e 41 42
e 41 47
e 41 49
e 41 50
e 41 55
e 41 58
e 41 60
e 41 72
e 41 74
e 41 75
e 41 77
e 42 45
e 42 46
e 42 48
e 42 51
e 42 52
e 42 53
e 42 57
e 42 59
e 42 61
e 42 63
e 42 66
e 42 68
e 42 79
e 42 80
e 43 44
e 43 50
e 43 58
e 43 62
e 43 64
e 43 69
e 43 70
e 43 72
e 43 74
e 43 75
e 43 76
e 43 77
e 44 45
e 44 46
e 44 48
e 44 52
e 44 54
e 44 56
e 44 59
e 44 63
e 44 67
e 44 68
e 44 71
e 44 73
e 44 79
e 44 80
e 45 47
e 45 58
e 45 60
e 45 64
e 45 65
e 45 70
e 45 75
e 45 76
e 46 50
e 46 55
e 46 58
e 46 64
e 46 65
e 46 74
e 47 51
e 47 57
e 47 66
e 47 67
e 47 68
e 47 79
e 47 80
e 48 49
e 48 50
e 48 55
e 48 60
e 48 62
e 48 65
e 48 69
e 48 70
e 48 72
e 48 74
e 48 75
e 48 77
e 49 52
e 49 56
e 49 57
e 49 61
e 49 66
e 49 68
e 49 71
e 49 78
e 49 79
e 49 80
e 50 52
e 50 53
e 50 54
e 50 56
e 50 61
e 50 66
e 50 67
e 50 68
e 50 71
e 50 79
e 50 80
e 51 55
e 51 58
e 51 60
e 51 62
e 51 69
e 51 72
e 51 74
e 51 76
e 52 62
e 52 65
e 52 69
e 52 70
e 52 72
e 52 74
e 52 76
e 53 55
e 53 58
e 53 60
e 53 62
e 53 64
e 53 69
e 53 70
e 53 77
e 54 55
e 54 58
e 54 60
e 54 62
e 54 64
e 54 69
e 54 70
e 54 72
e 54 76
e 55 57
e 55 61
e 55 66
e 55 67
e 56 62
e 56 65
e 56 69
e 56 72
e 56 74
e 56 75
e 56 76
e 57 58
e 57 62
e 57 69
e 57 70
e 58 59
e 58 61
e 58 67
e 58 79
e 58 80
e 59 60
e 59 62
e 59 64
e 59 70
e 59 74
e 60 61
e 60 63
e 60 66
e 60 67
e 60 68
e 60 73
e 60 78
e 60 80
e 61 64
e 61 74
e 61 75
e 61 76
e 61 77
e 62 63
e 62 66
e 62 67
e 62 71
e 62 78
e 62 79
e 63 64
e 63 70
e 63 75
e 63 76
e 63 77
e 64 66
e 64 67
e 64 78
e 64 79
e 64 80
e 65 66
e 65 67
e 65 73
e 65 78
e 65 79
e 65 80
e 66 69
e 66 70
e 66 77
e 67 76
e 68 72
e 68 75
e 68 77
e 69 71
e 69 79
e 69 80
e 70 78
e 70 79
e 71 72
e 71 77
e 73 74
e 73 75
e 73 77
e 74 78
e 74 79
e 75 80
e 76 78
e 76 79
e 76 80
e 77 78
e 77 79
